0 4219
1 4190
5 4158
9 4157
19 4148
20 4144
22 4133
27 4110
30 4081
32 4075
36 4019
39 4015
49 4010
50 3987
77 3972
84 3960
88 3955
90 3926
104 3918
115 3917
133 3880
164 3875
166 3864
185 3849
221 3845
225 3842
245 3840
248 3830
263 3823
290 3808
300 3805
305 3801
336 3793
346 3786
348 3781
354 3751
365 3742
371 3729
402 3722
461 3721
472 3714
474 3711
521 3703
602 3695
692 3691
749 3684
1583 3683
1584 3681
1585 3662
1730 3657
1933 3649
1936 3643
2058 3631
2072 3629
2097 3627
2104 3624
2109 3622
2249 3615
2288 3613
2321 3611
2348 3609
2433 3608
2469 3598
2482 3597
